
Gurobi 9.0.1 (linux64) logging started Thu Apr 30 06:23:42 2020

Gurobi Optimizer version 9.0.1 build v9.0.1rc0 (linux64)
Optimize a model with 2058 rows, 2120 columns and 19760 nonzeros
Model fingerprint: 0x756bdf1b
Variable types: 0 continuous, 2120 integer (2106 binary)
Coefficient statistics:
  Matrix range     [1e+00, 7e+00]
  Objective range  [3e+00, 1e+02]
  Bounds range     [1e+00, 1e+00]
  RHS range        [1e+00, 1e+00]

User MIP start produced solution with objective 571 (0.01s)
Loaded user MIP start with objective 571

Presolve removed 630 rows and 736 columns
Presolve time: 0.13s
Presolved: 1428 rows, 1384 columns, 14632 nonzeros
Variable types: 0 continuous, 1384 integer (1372 binary)

Root relaxation: objective 4.010809e+02, 1212 iterations, 0.13 seconds

    Nodes    |    Current Node    |     Objective Bounds      |     Work
 Expl Unexpl |  Obj  Depth IntInf | Incumbent    BestBd   Gap | It/Node Time

     0     0  401.08094    0  486  571.00000  401.08094  29.8%     -    0s
     0     0  445.30114    0  494  571.00000  445.30114  22.0%     -    0s
     0     0  448.19157    0  490  571.00000  448.19157  21.5%     -    1s
     0     0  448.23309    0  490  571.00000  448.23309  21.5%     -    1s
     0     0  460.78794    0  505  571.00000  460.78794  19.3%     -    1s
     0     0  466.10999    0  510  571.00000  466.10999  18.4%     -    1s
     0     0  466.21751    0  508  571.00000  466.21751  18.4%     -    1s
     0     0  466.22043    0  509  571.00000  466.22043  18.4%     -    1s
     0     0  480.45420    0  509  571.00000  480.45420  15.9%     -    2s
     0     0  480.93454    0  504  571.00000  480.93454  15.8%     -    2s
     0     0  481.02348    0  511  571.00000  481.02348  15.8%     -    2s
     0     0  481.03779    0  504  571.00000  481.03779  15.8%     -    2s
     0     0  485.65244    0  540  571.00000  485.65244  14.9%     -    3s
     0     0  486.05408    0  530  571.00000  486.05408  14.9%     -    3s
     0     0  486.07397    0  538  571.00000  486.07397  14.9%     -    3s
     0     0  487.08025    0  540  571.00000  487.08025  14.7%     -    3s
     0     0  487.12576    0  541  571.00000  487.12576  14.7%     -    3s
     0     0  487.35764    0  540  571.00000  487.35764  14.6%     -    3s
     0     0  487.35764    0  540  571.00000  487.35764  14.6%     -    3s
     0     0  487.39176    0  482  571.00000  487.39176  14.6%     -    4s
     0     0  487.39176    0  519  571.00000  487.39176  14.6%     -    5s
     0     0  487.39176    0  514  571.00000  487.39176  14.6%     -    5s
     0     0  487.39176    0  508  571.00000  487.39176  14.6%     -    5s
     0     0  487.39176    0  507  571.00000  487.39176  14.6%     -    5s
     0     0  487.39176    0  523  571.00000  487.39176  14.6%     -    5s
     0     0  487.39176    0  527  571.00000  487.39176  14.6%     -    5s
     0     0  487.39176    0  527  571.00000  487.39176  14.6%     -    5s
     0     0  490.81993    0  524  571.00000  490.81993  14.0%     -    6s
     0     0  491.24939    0  539  571.00000  491.24939  14.0%     -    6s
     0     0  491.29708    0  534  571.00000  491.29708  14.0%     -    6s
     0     0  493.02420    0  538  571.00000  493.02420  13.7%     -    6s
     0     0  493.16504    0  543  571.00000  493.16504  13.6%     -    6s
     0     0  493.24603    0  544  571.00000  493.24603  13.6%     -    6s
     0     0  493.25529    0  542  571.00000  493.25529  13.6%     -    6s
     0     0  493.58791    0  542  571.00000  493.58791  13.6%     -    7s
     0     0  493.58791    0  542  571.00000  493.58791  13.6%     -    7s
     0     2  493.63585    0  542  571.00000  493.63585  13.5%     -    7s
    11    13  533.57617    6  448  571.00000  499.49220  12.5%   853   10s
    40    38     cutoff   24       571.00000  499.49220  12.5%   768   15s
   100    59  544.22779    6  390  571.00000  516.40777  9.56%   539   20s
   185    90  538.55549    8  438  571.00000  518.73497  9.15%   436   25s
   283    98  544.71465    9  294  571.00000  532.16102  6.80%   372   30s
   374   115  562.24766    5  418  571.00000  537.43714  5.88%   345   35s
   469   116  548.28636    9  381  571.00000  541.03841  5.25%   325   40s
   587   124  563.56783   11  324  571.00000  542.72891  4.95%   301   45s
   683   120  569.37158   10  375  571.00000  545.26227  4.51%   292   50s
   755   112  564.07977   13  455  571.00000  550.61723  3.57%   291   55s
   888    71  568.43306   20  284  571.00000  557.70581  2.33%   272   60s
  1016    31  569.82065    5  430  571.00000  562.44942  1.50%   254   65s

Cutting planes:
  Gomory: 1
  MIR: 19
  StrongCG: 1
  GUB cover: 1
  Inf proof: 5
  Zero half: 26
  Mod-K: 2
  RLT: 338

Explored 1052 nodes (271014 simplex iterations) in 65.45 seconds
Thread count was 1 (of 40 available processors)

Solution count 1: 571 

Optimal solution found (tolerance 1.00e-04)
Best objective 5.710000000000e+02, best bound 5.710000000000e+02, gap 0.0000%

User-callback calls 7312, time in user-callback 0.01 sec
